DATASET = "thpack4";
INSTANCE = "041";

WIDTH = 233;
HEIGHT = 220;
LENGTH = 587;

NO_OF_SHAPES = 10;
size = [|
  109,80,68 |
  90,45,31 |
  66,56,34 |
  76,66,34 |
  111,80,53 |
  86,59,29 |
  80,72,63 |
  81,47,22 |
  114,80,64 |
  90,37,32 |
|];

verticality = [|
  1,1,1 |
  0,1,1 |
  1,1,1 |
  0,1,1 |
  0,1,1 |
  0,0,1 |
  1,1,1 |
  0,0,1 |
  1,1,1 |
  0,1,1 |
|];

box_count = [
  8,
  14,
  14,
  9,
  15,
  14,
  11,
  8,
  9,
  11,
];
